Cost: 517
0-34-13-15-20-37-5-0
0-17-39-31-10-26-0
0-45-29-48-21-30-0
0-4-46-8-19-35-7-0
0-12-40-44-3-51-6-0
0-16-23-24-18-25-32-0
0-2-22-42-43-1-33-0
Cost: 517
0-7-35-19-8-46-4-0
0-45-29-48-21-30-0
0-32-25-18-24-23-16-0
0-6-51-3-44-40-12-0
0-2-22-42-43-1-33-0
0-26-10-31-39-17-0
0-34-13-15-20-37-5-0
Cost: 517
0-34-13-15-20-37-5-0
0-17-39-31-10-26-0
0-45-29-48-21-30-0
0-4-46-8-19-35-7-0
0-12-40-44-3-51-6-0
0-16-23-24-18-25-32-0
0-2-22-42-43-1-33-0
Cost: 517
0-12-40-44-3-51-6-0
0-5-37-20-15-13-34-0
0-33-1-43-42-22-2-0
0-17-39-31-10-26-0
0-7-35-19-8-46-4-0
0-16-23-24-18-25-32-0
0-45-29-48-21-30-0
Cost: 517
0-6-51-3-44-40-12-0
0-33-1-43-42-22-2-0
0-32-25-18-24-23-16-0
0-26-10-31-39-17-0
0-7-35-19-8-46-4-0
0-5-37-20-15-13-34-0
0-45-29-48-21-30-0
Cost: 517
0-4-46-8-19-35-7-0
0-30-21-48-29-45-0
0-26-10-31-39-17-0
0-16-23-24-18-25-32-0
0-2-22-42-43-1-33-0
0-5-37-20-15-13-34-0
0-12-40-44-3-51-6-0
Cost: 517
0-33-1-43-42-22-2-0
0-4-46-8-19-35-7-0
0-16-23-24-18-25-32-0
0-26-10-31-39-17-0
0-12-40-44-3-51-6-0
0-45-29-48-21-30-0
0-34-13-15-20-37-5-0
Cost: 517
0-33-1-43-42-22-2-0
0-4-46-8-19-35-7-0
0-16-23-24-18-25-32-0
0-26-10-31-39-17-0
0-12-40-44-3-51-6-0
0-45-29-48-21-30-0
0-34-13-15-20-37-5-0
Cost: 517
0-33-1-43-42-22-2-0
0-4-46-8-19-35-7-0
0-16-23-24-18-25-32-0
0-26-10-31-39-17-0
0-12-40-44-3-51-6-0
0-45-29-48-21-30-0
0-34-13-15-20-37-5-0
Cost: 517
0-33-1-43-42-22-2-0
0-4-46-8-19-35-7-0
0-16-23-24-18-25-32-0
0-26-10-31-39-17-0
0-12-40-44-3-51-6-0
0-45-29-48-21-30-0
0-34-13-15-20-37-5-0
Cost: 517
0-33-1-43-42-22-2-0
0-4-46-8-19-35-7-0
0-16-23-24-18-25-32-0
0-26-10-31-39-17-0
0-12-40-44-3-51-6-0
0-45-29-48-21-30-0
0-34-13-15-20-37-5-0
Cost: 517
0-33-1-43-42-22-2-0
0-4-46-8-19-35-7-0
0-16-23-24-18-25-32-0
0-26-10-31-39-17-0
0-12-40-44-3-51-6-0
0-45-29-48-21-30-0
0-34-13-15-20-37-5-0
Cost: 517
0-33-1-43-42-22-2-0
0-4-46-8-19-35-7-0
0-16-23-24-18-25-32-0
0-26-10-31-39-17-0
0-12-40-44-3-51-6-0
0-45-29-48-21-30-0
0-34-13-15-20-37-5-0
Cost: 517
0-12-40-44-3-51-6-0
0-16-23-24-18-25-32-0
0-26-10-31-39-17-0
0-34-13-15-20-37-5-0
0-33-1-43-42-22-2-0
0-45-29-48-21-30-0
0-4-46-8-19-35-7-0
Cost: 517
0-33-1-43-42-22-2-0
0-4-46-8-19-35-7-0
0-16-23-24-18-25-32-0
0-26-10-31-39-17-0
0-12-40-44-3-51-6-0
0-45-29-48-21-30-0
0-34-13-15-20-37-5-0
Cost: 517
0-33-1-43-42-22-2-0
0-4-46-8-19-35-7-0
0-16-23-24-18-25-32-0
0-26-10-31-39-17-0
0-12-40-44-3-51-6-0
0-45-29-48-21-30-0
0-34-13-15-20-37-5-0
Cost: 517
0-45-29-48-21-30-0
0-33-1-43-42-22-2-0
0-34-13-15-20-37-5-0
0-12-40-44-3-51-6-0
0-4-46-8-19-35-7-0
0-32-25-18-24-23-16-0
0-26-10-31-39-17-0
Cost: 517
0-30-21-48-29-45-0
0-2-22-42-43-1-33-0
0-12-40-44-3-51-6-0
0-17-39-31-10-26-0
0-7-35-19-8-46-4-0
0-5-37-20-15-13-34-0
0-32-25-18-24-23-16-0
Cost: 517
0-26-10-31-39-17-0
0-12-40-44-3-51-6-0
0-30-21-48-29-45-0
0-7-35-19-8-46-4-0
0-34-13-15-20-37-5-0
0-33-1-43-42-22-2-0
0-32-25-18-24-23-16-0
Cost: 517
0-26-10-31-39-17-0
0-12-40-44-3-51-6-0
0-30-21-48-29-45-0
0-7-35-19-8-46-4-0
0-34-13-15-20-37-5-0
0-33-1-43-42-22-2-0
0-32-25-18-24-23-16-0
Cost: 517
0-7-35-19-8-46-4-0
0-26-10-31-39-17-0
0-5-37-20-15-13-34-0
0-2-22-42-43-1-33-0
0-16-23-24-18-25-32-0
0-45-29-48-21-30-0
0-6-51-3-44-40-12-0
Cost: 517
0-7-35-19-8-46-4-0
0-26-10-31-39-17-0
0-5-37-20-15-13-34-0
0-2-22-42-43-1-33-0
0-16-23-24-18-25-32-0
0-45-29-48-21-30-0
0-6-51-3-44-40-12-0
Cost: 517
0-33-1-43-42-22-2-0
0-16-23-24-18-25-32-0
0-4-46-8-19-35-7-0
0-26-10-31-39-17-0
0-30-21-48-29-45-0
0-6-51-3-44-40-12-0
0-34-13-15-20-37-5-0
Cost: 517
0-7-35-19-8-46-4-0
0-26-10-31-39-17-0
0-5-37-20-15-13-34-0
0-2-22-42-43-1-33-0
0-16-23-24-18-25-32-0
0-45-29-48-21-30-0
0-6-51-3-44-40-12-0
Cost: 517
0-30-21-48-29-45-0
0-2-22-42-43-1-33-0
0-12-40-44-3-51-6-0
0-17-39-31-10-26-0
0-7-35-19-8-46-4-0
0-5-37-20-15-13-34-0
0-32-25-18-24-23-16-0
Cost: 517
0-26-10-31-39-17-0
0-12-40-44-3-51-6-0
0-30-21-48-29-45-0
0-7-35-19-8-46-4-0
0-34-13-15-20-37-5-0
0-33-1-43-42-22-2-0
0-32-25-18-24-23-16-0
Cost: 517
0-12-40-44-3-51-6-0
0-5-37-20-15-13-34-0
0-4-46-8-19-35-7-0
0-26-10-31-39-17-0
0-2-22-42-43-1-33-0
0-32-25-18-24-23-16-0
0-45-29-48-21-30-0
Cost: 531
0-7-35-14-19-8-46-0
0-4-29-48-21-30-0
0-6-17-40-12-26-0
0-33-1-43-42-22-2-0
0-34-15-20-37-5-45-0
0-44-50-25-18-24-23-16-0
0-10-31-39-32-3-0
Cost: 529
0-12-40-44-3-51-6-0
0-7-35-14-19-46-4-0
0-16-23-43-42-22-1-33-0
0-26-39-9-32-17-0
0-30-48-21-28-2-0
0-24-18-25-31-10-0
0-34-15-20-37-5-45-0
Cost: 517
0-32-25-18-24-23-16-0
0-7-35-19-8-46-4-0
0-6-51-3-44-40-12-0
0-30-21-48-29-45-0
0-33-1-43-42-22-2-0
0-26-10-31-39-17-0
0-34-13-15-20-37-5-0
Cost: 517
0-6-51-3-44-40-12-0
0-45-29-48-21-30-0
0-32-25-18-24-23-16-0
0-2-22-42-43-1-33-0
0-17-39-31-10-26-0
0-4-46-8-19-35-7-0
0-34-13-15-20-37-5-0
